************************************************************************
file with basedata            : cn340_.bas
initial value random generator: 1206097822
************************************************************************
projects                      :  1
jobs (incl. supersource/sink ):  18
horizon                       :  122
RESOURCES
  - renewable                 :  2   R
  - nonrenewable              :  3   N
  - doubly constrained        :  0   D
************************************************************************
PROJECT INFORMATION:
pronr.  #jobs rel.date duedate tardcost  MPM-Time
    1     16      0       23        6       23
************************************************************************
PRECEDENCE RELATIONS:
jobnr.    #modes  #successors   successors
   1        1          3           2   3   4
   2        3          2          11  16
   3        3          3           6  12  16
   4        3          2           5   6
   5        3          3           7  12  16
   6        3          3           8  10  14
   7        3          3           8  10  14
   8        3          1           9
   9        3          2          11  17
  10        3          2          15  17
  11        3          1          13
  12        3          2          13  14
  13        3          1          15
  14        3          2          15  17
  15        3          1          18
  16        3          1          18
  17        3          1          18
  18        1          0        
************************************************************************
REQUESTS/DURATIONS:
jobnr. mode duration  R 1  R 2  N 1  N 2  N 3
------------------------------------------------------------------------
  1      1     0       0    0    0    0    0
  2      1     1       6    8    8    1    8
         2     5       4    5    6    1    6
         3     6       4    4    6    1    3
  3      1     1       2    4    7    5    5
         2     2       2    4    6    5    3
         3     3       1    4    6    4    2
  4      1     4       4    4    8    8    9
         2     5       4    4    6    8    8
         3     7       4    3    4    8    6
  5      1     1       8    4    4    7    2
         2     6       7    2    4    7    2
         3     6       3    3    4    6    1
  6      1     7      10    8    8    7    4
         2     9       9    7    8    6    4
         3    10       9    5    8    4    3
  7      1     2       7    6   10    4    6
         2     3       5    6    9    3    4
         3     8       3    6    7    2    3
  8      1     1       6    6   10    7    8
         2     6       6    4    9    4    6
         3     7       5    3    8    3    3
  9      1     3       7    6    9    6    4
         2     7       6    5    8    5    4
         3     9       3    5    8    3    3
 10      1     1       2    5   10    3    4
         2     3       1    5    7    2    3
         3     9       1    4    3    1    2
 11      1     1       8    8    6    5   10
         2     2       4    8    5    4    7
         3     8       3    7    2    3    7
 12      1     9       6    4    6    5    9
         2     9       6    4    7    5    8
         3    10       6    2    4    4    6
 13      1     3      10    2    6   10    3
         2     4      10    2    3   10    3
         3     6       9    1    3    9    3
 14      1     1       9    5    7    6    6
         2     2       5    4    7    5    6
         3     8       3    3    7    2    6
 15      1     4       9    8    9    9    9
         2     5       5    6    6    9    6
         3     6       3    5    4    9    4
 16      1     4       5    9    7    2    5
         2     5       5    9    5    1    4
         3     9       5    9    1    1    4
 17      1     7       7   10    7   10    7
         2     9       5   10    6    7    6
         3    10       3    9    6    5    6
 18      1     0       0    0    0    0    0
************************************************************************
RESOURCEAVAILABILITIES:
  R 1  R 2  N 1  N 2  N 3
   28   27   92   73   71
************************************************************************
